14
1 0 1
2 0 2
2 1 5
3 0 4
3 1 4
3 2 3
4 0 2
4 1 3
4 2 3
4 3 1
5 0 5
5 1 1
5 2 4
5 3 4
5 4 1
6 0 4
6 1 5
6 2 1
6 3 6
6 4 1
6 5 1
7 0 3
7 1 5
7 2 1
7 3 5
7 4 5
7 5 3
7 6 4
8 0 2
8 1 6
8 2 2
8 3 4
8 4 4
8 5 3
8 6 4
8 7 2
9 0 4
9 1 5
9 2 1
9 3 3
9 4 2
9 5 4
9 6 2
9 7 4
9 8 4
10 0 1
10 1 6
10 2 4
10 3 6
10 4 3
10 5 2
10 6 4
10 7 2
10 8 4
10 9 5
11 0 5
11 1 6
11 2 1
11 3 6
11 4 5
11 5 6
11 6 3
11 7 1
11 8 4
11 9 1
11 10 6
12 0 6
12 1 5
12 2 4
12 3 4
12 4 3
12 5 4
12 6 2
12 7 4
12 8 1
12 9 2
12 10 5
12 11 4
13 0 3
13 1 3
13 2 5
13 3 2
13 4 1
13 5 4
13 6 1
13 7 1
13 8 6
13 9 2
13 10 4
13 11 4
13 12 2
